certificates/rado_a13_c17_N58.cnf
c Rad2 upper bound instance: x1 + 13*x2 - x3 = 17, interval [1,58]
p cnf 58 344
1 2 10 0
-1 -2 -10 0
1 3 23 0
-1 -3 -23 0
1 4 36 0
-1 -4 -36 0
1 5 49 0
-1 -5 -49 0
2 11 0
-2 -11 0
2 3 24 0
-2 -3 -24 0
2 4 37 0
-2 -4 -37 0
2 5 50 0
-2 -5 -50 0
2 3 12 0
-2 -3 -12 0
3 25 0
-3 -25 0
3 4 38 0
-3 -4 -38 0
3 5 51 0
-3 -5 -51 0
2 4 13 0
-2 -4 -13 0
3 4 26 0
-3 -4 -26 0
4 39 0
-4 -39 0
4 5 52 0
-4 -5 -52 0
1 5 0
-1 -5 0
2 5 14 0
-2 -5 -14 0
3 5 27 0
-3 -5 -27 0
4 5 40 0
-4 -5 -40 0
5 53 0
-5 -53 0
1 2 6 0
-1 -2 -6 0
2 6 15 0
-2 -6 -15 0
3 6 28 0
-3 -6 -28 0
4 6 41 0
-4 -6 -41 0
5 6 54 0
-5 -6 -54 0
1 3 7 0
-1 -3 -7 0
2 7 16 0
-2 -7 -16 0
3 7 29 0
-3 -7 -29 0
4 7 42 0
-4 -7 -42 0
5 7 55 0
-5 -7 -55 0
1 4 8 0
-1 -4 -8 0
2 8 17 0
-2 -8 -17 0
3 8 30 0
-3 -8 -30 0
4 8 43 0
-4 -8 -43 0
5 8 56 0
-5 -8 -56 0
1 5 9 0
-1 -5 -9 0
2 9 18 0
-2 -9 -18 0
3 9 31 0
-3 -9 -31 0
4 9 44 0
-4 -9 -44 0
5 9 57 0
-5 -9 -57 0
1 6 10 0
-1 -6 -10 0
2 10 19 0
-2 -10 -19 0
3 10 32 0
-3 -10 -32 0
4 10 45 0
-4 -10 -45 0
5 10 58 0
-5 -10 -58 0
1 7 11 0
-1 -7 -11 0
2 11 20 0
-2 -11 -20 0
3 11 33 0
-3 -11 -33 0
4 11 46 0
-4 -11 -46 0
1 8 12 0
-1 -8 -12 0
2 12 21 0
-2 -12 -21 0
3 12 34 0
-3 -12 -34 0
4 12 47 0
-4 -12 -47 0
1 9 13 0
-1 -9 -13 0
2 13 22 0
-2 -13 -22 0
3 13 35 0
-3 -13 -35 0
4 13 48 0
-4 -13 -48 0
1 10 14 0
-1 -10 -14 0
2 14 23 0
-2 -14 -23 0
3 14 36 0
-3 -14 -36 0
4 14 49 0
-4 -14 -49 0
1 11 15 0
-1 -11 -15 0
2 15 24 0
-2 -15 -24 0
3 15 37 0
-3 -15 -37 0
4 15 50 0
-4 -15 -50 0
1 12 16 0
-1 -12 -16 0
2 16 25 0
-2 -16 -25 0
3 16 38 0
-3 -16 -38 0
4 16 51 0
-4 -16 -51 0
1 13 17 0
-1 -13 -17 0
2 17 26 0
-2 -17 -26 0
3 17 39 0
-3 -17 -39 0
4 17 52 0
-4 -17 -52 0
1 14 18 0
-1 -14 -18 0
2 18 27 0
-2 -18 -27 0
3 18 40 0
-3 -18 -40 0
4 18 53 0
-4 -18 -53 0
1 15 19 0
-1 -15 -19 0
2 19 28 0
-2 -19 -28 0
3 19 41 0
-3 -19 -41 0
4 19 54 0
-4 -19 -54 0
1 16 20 0
-1 -16 -20 0
2 20 29 0
-2 -20 -29 0
3 20 42 0
-3 -20 -42 0
4 20 55 0
-4 -20 -55 0
1 17 21 0
-1 -17 -21 0
2 21 30 0
-2 -21 -30 0
3 21 43 0
-3 -21 -43 0
4 21 56 0
-4 -21 -56 0
1 18 22 0
-1 -18 -22 0
2 22 31 0
-2 -22 -31 0
3 22 44 0
-3 -22 -44 0
4 22 57 0
-4 -22 -57 0
1 19 23 0
-1 -19 -23 0
2 23 32 0
-2 -23 -32 0
3 23 45 0
-3 -23 -45 0
4 23 58 0
-4 -23 -58 0
1 20 24 0
-1 -20 -24 0
2 24 33 0
-2 -24 -33 0
3 24 46 0
-3 -24 -46 0
1 21 25 0
-1 -21 -25 0
2 25 34 0
-2 -25 -34 0
3 25 47 0
-3 -25 -47 0
1 22 26 0
-1 -22 -26 0
2 26 35 0
-2 -26 -35 0
3 26 48 0
-3 -26 -48 0
1 23 27 0
-1 -23 -27 0
2 27 36 0
-2 -27 -36 0
3 27 49 0
-3 -27 -49 0
1 24 28 0
-1 -24 -28 0
2 28 37 0
-2 -28 -37 0
3 28 50 0
-3 -28 -50 0
1 25 29 0
-1 -25 -29 0
2 29 38 0
-2 -29 -38 0
3 29 51 0
-3 -29 -51 0
1 26 30 0
-1 -26 -30 0
2 30 39 0
-2 -30 -39 0
3 30 52 0
-3 -30 -52 0
1 27 31 0
-1 -27 -31 0
2 31 40 0
-2 -31 -40 0
3 31 53 0
-3 -31 -53 0
1 28 32 0
-1 -28 -32 0
2 32 41 0
-2 -32 -41 0
3 32 54 0
-3 -32 -54 0
1 29 33 0
-1 -29 -33 0
2 33 42 0
-2 -33 -42 0
3 33 55 0
-3 -33 -55 0
1 30 34 0
-1 -30 -34 0
2 34 43 0
-2 -34 -43 0
3 34 56 0
-3 -34 -56 0
1 31 35 0
-1 -31 -35 0
2 35 44 0
-2 -35 -44 0
3 35 57 0
-3 -35 -57 0
1 32 36 0
-1 -32 -36 0
2 36 45 0
-2 -36 -45 0
3 36 58 0
-3 -36 -58 0
1 33 37 0
-1 -33 -37 0
2 37 46 0
-2 -37 -46 0
1 34 38 0
-1 -34 -38 0
2 38 47 0
-2 -38 -47 0
1 35 39 0
-1 -35 -39 0
2 39 48 0
-2 -39 -48 0
1 36 40 0
-1 -36 -40 0
2 40 49 0
-2 -40 -49 0
1 37 41 0
-1 -37 -41 0
2 41 50 0
-2 -41 -50 0
1 38 42 0
-1 -38 -42 0
2 42 51 0
-2 -42 -51 0
1 39 43 0
-1 -39 -43 0
2 43 52 0
-2 -43 -52 0
1 40 44 0
-1 -40 -44 0
2 44 53 0
-2 -44 -53 0
1 41 45 0
-1 -41 -45 0
2 45 54 0
-2 -45 -54 0
1 42 46 0
-1 -42 -46 0
2 46 55 0
-2 -46 -55 0
1 43 47 0
-1 -43 -47 0
2 47 56 0
-2 -47 -56 0
1 44 48 0
-1 -44 -48 0
2 48 57 0
-2 -48 -57 0
1 45 49 0
-1 -45 -49 0
2 49 58 0
-2 -49 -58 0
1 46 50 0
-1 -46 -50 0
1 47 51 0
-1 -47 -51 0
1 48 52 0
-1 -48 -52 0
1 49 53 0
-1 -49 -53 0
1 50 54 0
-1 -50 -54 0
1 51 55 0
-1 -51 -55 0
1 52 56 0
-1 -52 -56 0
1 53 57 0
-1 -53 -57 0
1 54 58 0
-1 -54 -58 0
