certificates/rado_a13_c17_N58.drat
-54 -58 0
d -54 -1 -58 0
6 10 54 0
-5 10 54 0
5 -57 0
-5 -58 0
-58 0
54 0
5 -10 0
-5 0
1 0
53 0
10 0
-57 0
0
